BiSe P-3m1                              
   1.00000000000000     
     4.2812412440821017   -0.0000003781446037    0.0000025381896517
    -2.1406209489345644    3.7076651167563748   -0.0000005265155170
     0.0000140246120629    0.0000047302780537   23.6725280407414509
   Bi   Se
     6     6
Direct
  0.0000006110354520  0.0000015041076122  0.1255687314158680
  0.3333292179753341  0.6666662198496710  0.2862123555650204
  0.6666624933278384  0.3333317581545671  0.4608239416761691
  0.3333375066721615  0.6666682418454329  0.5391760583238239
  0.6666707820246659  0.3333337801503291  0.7137876444349797
 -0.0000006110354520 -0.0000015041076122  0.8744312685841320
  0.3333319560346071  0.6666662681150075  0.0615371343204781
  0.6666665013093458  0.3333333696455587  0.2077943513876662
  0.0000008067736798  0.0000004060616380  0.3532964955469356
 -0.0000008067736798 -0.0000004060616380  0.6467035044530643
  0.3333334986906541  0.6666666303544414  0.7922056486123338
  0.6666680439653929  0.3333337318849925  0.9384628656795219
 
  0.00000000E+00  0.00000000E+00  0.00000000E+00
  0.00000000E+00  0.00000000E+00  0.00000000E+00
  0.00000000E+00  0.00000000E+00  0.00000000E+00
  0.00000000E+00  0.00000000E+00  0.00000000E+00
  0.00000000E+00  0.00000000E+00  0.00000000E+00
  0.00000000E+00  0.00000000E+00  0.00000000E+00
  0.00000000E+00  0.00000000E+00  0.00000000E+00
  0.00000000E+00  0.00000000E+00  0.00000000E+00
  0.00000000E+00  0.00000000E+00  0.00000000E+00
  0.00000000E+00  0.00000000E+00  0.00000000E+00
  0.00000000E+00  0.00000000E+00  0.00000000E+00
  0.00000000E+00  0.00000000E+00  0.00000000E+00
